20
1 0 11
2 0 7
3 0 20
3 1 5
3 2 4
4 0 13
4 3 16
5 0 8
5 2 8
5 3 9
5 4 3
6 0 1
6 2 20
7 0 10
7 3 16
7 4 1
7 5 8
7 6 16
8 0 13
8 2 3
8 3 15
8 4 11
9 3 4
9 5 11
9 8 6
10 0 4
10 1 20
10 2 14
10 3 4
10 4 14
10 5 8
10 6 9
10 7 20
10 8 10
11 2 13
11 4 6
11 6 6
11 7 11
11 8 2
12 0 8
12 1 9
12 4 16
12 5 9
12 6 12
12 7 20
12 9 19
12 10 17
13 0 16
13 1 5
13 4 12
13 5 16
13 7 2
13 8 12
13 10 12
13 12 7
14 3 7
14 4 20
14 5 5
14 6 11
14 8 9
14 10 2
14 11 16
14 12 10
15 0 8
15 1 12
15 2 10
15 4 12
15 5 17
15 6 15
15 8 10
15 9 3
15 10 14
15 11 17
15 13 3
16 0 8
16 1 16
16 2 16
16 3 12
16 5 16
16 8 10
16 9 8
16 10 16
16 11 1
16 13 20
16 14 6
17 1 9
17 2 17
17 3 1
17 4 6
17 6 1
17 7 18
17 8 19
17 9 15
17 10 13
17 11 6
17 12 16
17 13 5
17 14 14
17 15 6
17 16 5
18 0 16
18 1 16
18 2 9
18 5 17
18 6 12
18 7 5
18 8 9
18 10 3
18 11 12
18 12 3
18 13 14
18 14 6
18 16 16
18 17 13
19 0 15
19 1 2
19 2 19
19 3 13
19 6 8
19 8 12
19 9 5
19 10 16
19 11 3
19 12 19
19 13 17
19 15 13
19 16 15
19 17 8
19 18 4
